; benchmark generated from python API
(set-info :status unknown)
(declare-datatypes ((RealState 0)) (((RMk1 (rval1 Real)) (RMk2 (rval2 Real)))))
 (assert
 (exists ((|v11:0_st| RealState) (val!6596 Real) )(exists ((|v10:1_st| RealState) (val!6597 Real) )(exists ((|v9:2_st| RealState) (val!6598 Real) )(exists ((|v8:3_st| RealState) (val!6599 Real) )(forall ((|v7:4| Real) )(forall ((|v6:5| Real) )(forall ((|v5:6| Real) )(forall ((|v4:7| Real) )(exists ((|v3:8_st| RealState) (val!6600 Real) )(exists ((|v2:9_st| RealState) (val!6601 Real) )(exists ((|v1:10_st| RealState) (val!6602 Real) )(exists ((|v0:11_st| RealState) (val!6603 Real) )(let ((?x496 (- 19.0)))
 (let ((?x721 (rval2 |v0:11_st|)))
 (let ((?x564 (- 8.0)))
 (let ((?x210 (* ?x564 ?x721)))
 (let ((?x1020 (+ (+ (* (- 9.0) (rval2 |v11:0_st|)) (* 0.0 ?x721)) (* (- 10.0) (rval2 |v10:1_st|)))))
 (let ((?x2946 (- 12.0)))
 (let ((?x220 (rval2 |v11:0_st|)))
 (let ((?x2565 (* 4.0 ?x220)))
 (let ((?x2428 (+ (+ (+ (* 18.0 |v6:5|) (* (- 10.0) |v7:4|)) (* 20.0 |v5:6|)) ?x2565)))
 (let ((?x3021 (+ (+ (* (- 14.0) |v5:6|) (* 15.0 ?x220)) (* (- 17.0) (rval2 |v10:1_st|)))))
 (let ((?x2932 (+ (+ (* (- 14.0) ?x220) (* (- 15.0) (rval2 |v9:2_st|))) (* 19.0 (rval2 |v10:1_st|)))))
 (let (($x563 (and (<= (+ ?x2932 (* (- 7.0) |v7:4|)) ?x564) (<= (+ ?x3021 (* 2.0 |v5:6|)) 19.0))))
 (let ((?x2096 (- 10.0)))
 (let ((?x620 (+ (+ (* ?x2096 (rval2 |v8:3_st|)) (* 10.0 (rval2 |v1:10_st|))) (* 8.0 |v6:5|))))
 (let ((?x961 (- 2.0)))
 (let ((?x2250 (rval2 |v10:1_st|)))
 (let ((?x1022 (* 7.0 ?x2250)))
 (let ((?x277 (* ?x2946 |v7:4|)))
 (let ((?x1484 (+ (+ (+ (* (- 5.0) (rval2 |v8:3_st|)) (* 16.0 (rval2 |v2:9_st|))) ?x277) ?x1022)))
 (let ((?x2749 (- 17.0)))
 (let ((?x273 (rval2 |v2:9_st|)))
 (let ((?x2779 (* 11.0 ?x273)))
 (let (($x2805 (<= (+ (+ (+ (* 4.0 |v5:6|) (* 5.0 |v7:4|)) (* 16.0 ?x2250)) ?x2779) ?x2749)))
 (let ((?x2830 (* ?x496 |v5:6|)))
 (let ((?x1092 (+ (+ (+ (* 0.0 |v6:5|) (* (- 9.0) (rval2 |v8:3_st|))) (* 13.0 ?x220)) ?x2830)))
 (let (($x1374 (and (or (<= ?x1092 0.0) $x2805) (and (<= ?x1484 ?x961) (<= (+ ?x620 (* (- 7.0) |v4:7|)) ?x2096)))))
 (let ((?x1477 (- 5.0)))
 (let ((?x2397 (rval2 |v3:8_st|)))
 (let ((?x2387 (- 1.0)))
 (let ((?x1239 (* ?x2387 ?x2397)))
 (let ((?x1104 (+ (+ (+ (* ?x496 ?x273) (* 9.0 ?x220)) (* 18.0 (rval2 |v9:2_st|))) ?x1239)))
 (let ((?x71 (- 9.0)))
 (let ((?x3138 (rval2 |v1:10_st|)))
 (let ((?x1420 (* 19.0 ?x3138)))
 (let (($x3214 (<= (+ (+ (+ (* 12.0 |v4:7|) (* 19.0 ?x2397)) (* 18.0 ?x273)) ?x1420) ?x71)))
 (let (($x2089 (<= (+ (+ (+ (* ?x2946 ?x2397) (* 5.0 |v5:6|)) ?x2565) (* ?x961 |v7:4|)) 13.0)))
 (let ((?x1083 (+ (+ (+ (* (- 15.0) ?x220) (* 10.0 |v7:4|)) (* 2.0 |v4:7|)) |v6:5|)))
 (let ((?x1774 (- 11.0)))
 (let ((?x330 (* 5.0 ?x2397)))
 (let ((?x3071 (rval2 |v8:3_st|)))
 (let ((?x1642 (- 18.0)))
 (let ((?x2996 (* ?x1642 ?x3071)))
 (let (($x1328 (<= (+ (+ (+ (* 6.0 ?x721) (* ?x1642 (rval2 |v9:2_st|))) ?x2996) ?x330) ?x1774)))
 (let ((?x3359 (* ?x564 ?x220)))
 (let ((?x1408 (+ (+ (+ (* 2.0 |v7:4|) (* ?x1774 ?x2397)) (* ?x496 (rval2 |v9:2_st|))) ?x3359)))
 (let ((?x1709 (- 16.0)))
 (let (($x2605 (<= (+ (+ (+ (* ?x2096 ?x721) (* (- 15.0) |v4:7|)) ?x2996) (* 3.0 ?x220)) ?x1709)))
 (let ((?x3311 (+ (+ (+ (* 17.0 ?x3138) (* 2.0 ?x3138)) (* ?x1774 ?x721)) (* ?x2946 (rval2 |v9:2_st|)))))
 (let (($x1998 (and (and (and (<= ?x3311 14.0) $x2605) (and (<= ?x1408 ?x1774) $x1328)) (and (and (<= ?x1083 12.0) $x2089) (and $x3214 (<= ?x1104 ?x1477))))))
 (let (($x3451 (and $x1998 (and $x1374 (and $x563 (and (<= ?x2428 ?x2946) (<= (+ ?x1020 ?x210) ?x496)))))))
 (let (($x3239 (<= (+ (+ (+ ?x277 (* ?x961 |v4:7|)) (* 11.0 |v4:7|)) (* ?x2096 |v5:6|)) 1.0)))
 (let ((?x617 (* ?x1642 |v6:5|)))
 (let ((?x255 (+ (+ (+ (* 14.0 ?x3138) (* 6.0 ?x220)) (* (- 14.0) |v5:6|)) ?x617)))
 (let ((?x1633 (- 7.0)))
 (let ((?x982 (+ (+ (+ (* (- 20.0) |v4:7|) (* 10.0 |v7:4|)) (* ?x961 ?x3138)) (* (- 3.0) (rval2 |v9:2_st|)))))
 (let ((?x1553 (* ?x961 |v4:7|)))
 (let (($x1956 (<= (+ (+ (+ (* 14.0 |v4:7|) (* ?x2096 ?x2397)) (* 0.0 |v5:6|)) ?x1553) ?x1709)))
 (let ((?x2104 (+ (+ (+ (* ?x564 ?x2397) (* 10.0 |v5:6|)) (* 0.0 ?x3138)) (* 9.0 |v5:6|))))
 (let ((?x596 (* 3.0 ?x721)))
 (let ((?x3147 (rval2 |v9:2_st|)))
 (let ((?x2501 (* 12.0 ?x3147)))
 (let (($x3441 (and (<= (+ (+ (+ (* 15.0 ?x3147) (* 14.0 ?x220)) ?x2501) ?x596) ?x2946) (<= ?x2104 ?x1633))))
 (let (($x1371 (<= (+ (+ (+ (* 12.0 ?x220) (* (- 13.0) ?x273)) ?x2397) (* ?x564 ?x3138)) ?x71)))
 (let ((?x1232 (+ (+ (+ (* 6.0 ?x220) (* ?x2946 |v4:7|)) (* ?x2946 ?x220)) (* ?x496 |v6:5|))))
 (let (($x948 (and (or (and (<= ?x1232 10.0) $x1371) $x3441) (and (and $x1956 (<= ?x982 ?x1633)) (and (<= ?x255 7.0) $x3239)))))
 (let ((?x2154 (+ (+ (+ (* 20.0 ?x3071) (* 5.0 ?x273)) (* 19.0 ?x3071)) (* ?x2096 ?x273))))
 (let ((?x1219 (+ (+ (+ (* 16.0 ?x3071) (* (- 3.0) ?x3071)) (* ?x2749 |v5:6|)) (* (- 4.0) |v4:7|))))
 (let ((?x3433 (+ (+ (+ (* ?x2387 ?x220) (* ?x1477 ?x220)) (* (- 20.0) |v6:5|)) (* ?x961 ?x273))))
 (let (($x2381 (or (<= ?x3433 18.0) (<= (+ (+ (+ (* ?x1709 ?x273) ?x617) (* 11.0 |v7:4|)) ?x1022) 0.0))))
 (let ((?x1415 (- 15.0)))
 (let ((?x2628 (* ?x1415 |v5:6|)))
 (let (($x2729 (<= (+ (+ (+ (* ?x71 ?x3138) (* ?x1709 |v6:5|)) (* ?x496 ?x3071)) ?x2628) 6.0)))
 (let (($x2521 (<= (+ (+ (+ (* ?x71 |v4:7|) ?x1239) (* 11.0 |v6:5|)) (* (- 6.0) ?x3138)) ?x1709)))
 (let ((?x262 (* 18.0 |v6:5|)))
 (let (($x190 (<= (+ (+ (+ (* ?x1642 ?x273) (* 16.0 |v4:7|)) (* 20.0 |v5:6|)) ?x262) 2.0)))
 (let ((?x858 (+ (+ (+ (* 9.0 ?x220) (* (- 3.0) ?x3138)) (* (- 6.0) ?x3071)) (* (- 6.0) |v6:5|))))
 (let (($x891 (and (and (and (<= ?x858 ?x2096) $x190) (and $x2521 $x2729)) (and $x2381 (and (<= ?x1219 ?x1633) (<= ?x2154 ?x961))))))
 (let ((?x2348 (- 20.0)))
 (let (($x2126 (<= (+ (+ (+ (* ?x1774 ?x3071) ?x2565) (* 0.0 ?x3138)) (* 16.0 ?x721)) ?x2348)))
 (let ((?x2826 (* 9.0 |v7:4|)))
 (let (($x1606 (<= (+ (+ (+ (* ?x1642 |v4:7|) (* 9.0 ?x721)) (* ?x2348 |v4:7|)) ?x2826) 1.0)))
 (let ((?x1976 (+ (+ (+ (* 10.0 |v5:6|) (* (- 14.0) ?x721)) (* 6.0 ?x220)) (* ?x1642 ?x721))))
 (let (($x3345 (<= (+ (+ (+ (* ?x496 ?x220) (* 15.0 |v6:5|)) ?x2826) (* ?x1774 ?x2397)) ?x2387)))
 (let ((?x3360 (* 9.0 ?x273)))
 (let (($x2584 (<= (+ (+ (+ (* 18.0 ?x3138) (* ?x1633 ?x721)) (* ?x1709 ?x3147)) ?x3360) ?x1415)))
 (let ((?x547 (* 3.0 ?x2397)))
 (let (($x603 (<= (+ (+ (+ (* 16.0 |v6:5|) (* 15.0 ?x3071)) (* 15.0 ?x721)) ?x547) 19.0)))
 (let (($x2331 (<= (+ (+ (+ (* ?x2749 ?x721) (* 18.0 |v5:6|)) |v6:5|) (* 4.0 ?x3138)) 0.0)))
 (let ((?x1978 (* 13.0 |v7:4|)))
 (let (($x2275 (<= (+ (+ (+ (* 3.0 ?x3071) (* 15.0 |v5:6|)) (* 19.0 |v7:4|)) ?x1978) ?x961)))
 (let (($x2982 (and (and (and $x2275 $x2331) (and $x603 $x2584)) (and (and $x3345 (<= ?x1976 16.0)) (and $x1606 $x2126)))))
 (let ((?x1545 (* ?x2749 |v5:6|)))
 (let ((?x265 (+ (+ (+ (* 14.0 ?x2397) (* (- 4.0) ?x2250)) (* (- 3.0) |v4:7|)) ?x1545)))
 (let ((?x2843 (* ?x1477 ?x3147)))
 (let (($x1778 (<= (+ (+ (+ (* 5.0 |v5:6|) (* 5.0 ?x220)) (* 8.0 ?x3147)) ?x2843) ?x1774)))
 (let ((?x1910 (* 19.0 ?x3147)))
 (let (($x1500 (<= (+ (+ (+ (* ?x1774 ?x3071) (* ?x2387 ?x2250)) (* 12.0 |v6:5|)) ?x1910) 17.0)))
 (let (($x1431 (<= (+ (+ (+ (* 17.0 ?x273) ?x210) (* ?x2348 ?x3071)) (* ?x1774 ?x220)) 4.0)))
 (let ((?x2253 (* 8.0 ?x3147)))
 (let ((?x3117 (+ (+ (+ (* (- 3.0) ?x2397) (* (- 4.0) |v6:5|)) (* ?x2749 ?x3071)) ?x2253)))
 (let ((?x2066 (* 5.0 |v7:4|)))
 (let (($x1721 (<= (+ (+ (+ (* ?x1642 |v7:4|) (* 15.0 ?x3071)) (* (- 3.0) ?x3138)) ?x2066) ?x1642)))
 (let (($x217 (<= (+ (+ (+ (* 8.0 ?x3071) ?x1910) (* (- 3.0) |v6:5|)) (* ?x961 ?x220)) ?x1774)))
 (let (($x2027 (<= (+ (+ (+ (* 12.0 ?x2250) (* ?x2387 ?x2250)) ?x2843) (* 20.0 |v6:5|)) 18.0)))
 (let (($x2506 (and (and (or $x2027 $x217) (and $x1721 (<= ?x3117 19.0))) (and (and $x1431 $x1500) (and $x1778 (<= ?x265 9.0))))))
 (let ((?x3453 (+ (+ (+ (* (- 14.0) |v4:7|) (* 14.0 |v5:6|)) (* (- 6.0) ?x273)) (* 13.0 |v6:5|))))
 (let ((?x74 (+ (+ (+ (* (- 13.0) |v7:4|) (* 18.0 ?x721)) (* (- 14.0) ?x2397)) (* 6.0 ?x2250))))
 (let ((?x1570 (+ (+ (+ (* 8.0 |v7:4|) (* ?x1774 |v7:4|)) (* 5.0 ?x3138)) (* 11.0 ?x3071))))
 (let ((?x849 (+ (+ (+ (* 11.0 ?x2250) (* 7.0 ?x3138)) (* 11.0 ?x3147)) (* ?x2946 ?x3071))))
 (let (($x2359 (and (and (<= ?x849 ?x2096) (<= ?x1570 1.0)) (and (<= ?x74 0.0) (<= ?x3453 5.0)))))
 (let ((?x234 (* 3.0 ?x220)))
 (let (($x2263 (<= (+ (+ (+ (* ?x2946 ?x2250) (* 6.0 ?x3138)) (* 10.0 ?x3071)) ?x234) 12.0)))
 (let (($x2866 (<= (+ (+ (+ ?x2826 (* 14.0 ?x3071)) (* 4.0 |v5:6|)) (* ?x564 ?x3138)) 15.0)))
 (let (($x845 (<= (+ (+ (+ (* ?x496 ?x273) (* 9.0 ?x2250)) ?x277) (* ?x2348 ?x721)) ?x2096)))
 (let (($x1531 (and $x845 (<= (+ (+ (+ ?x3359 (* (- 3.0) ?x721)) (* ?x1709 ?x3147)) ?x3359) ?x2387))))
 (let ((?x2784 (+ (+ (+ (* 12.0 ?x3071) (* ?x564 ?x3147)) (* ?x1415 ?x3138)) (* ?x2749 ?x3147))))
 (let (($x3134 (<= (+ (+ (+ (* 5.0 |v6:5|) (* 14.0 ?x220)) (* ?x496 ?x3071)) ?x2628) 12.0)))
 (let ((?x2796 (* ?x71 ?x721)))
 (let ((?x1327 (+ (+ (+ (* ?x2946 |v4:7|) (* (- 14.0) |v5:6|)) (* ?x1477 ?x721)) (* 6.0 ?x3147))))
 (let (($x1338 (and (<= ?x1327 17.0) (<= (+ (+ (+ ?x2796 (* 15.0 ?x3138)) (* ?x1415 |v4:7|)) ?x2796) ?x1774))))
 (let ((?x871 (* 10.0 ?x220)))
 (let ((?x1291 (+ (+ (+ (* (- 14.0) ?x3138) (* 12.0 ?x273)) (* (- 13.0) |v6:5|)) ?x871)))
 (let ((?x13 (* 11.0 |v5:6|)))
 (let (($x2827 (<= (+ (+ (+ (* ?x1477 |v5:6|) (* 20.0 |v6:5|)) (* ?x1477 |v6:5|)) ?x13) ?x2749)))
 (let ((?x1336 (* 10.0 ?x2250)))
 (let (($x81 (<= (+ (+ (+ (* ?x2096 |v4:7|) (* ?x2348 ?x273)) (* 19.0 ?x273)) ?x1336) ?x2096)))
 (let (($x1207 (<= (+ (+ (+ (* 12.0 ?x2397) ?x547) (* (- 4.0) ?x2397)) (* ?x1477 |v5:6|)) ?x496)))
 (let (($x2215 (and (and (and $x1207 $x81) (and $x2827 (<= ?x1291 17.0))) (or $x1338 (and $x3134 (<= ?x2784 17.0))))))
 (let (($x2568 (and (or $x2215 (and (and $x1531 (and $x2866 $x2263)) $x2359)) (and $x2506 $x2982))))
 (let (($x1161 (not (= |v0:11_st| (RMk1 val!6603)))))
 (let (($x1272 (not (= |v1:10_st| (RMk1 val!6602)))))
 (let (($x1346 (not (= |v2:9_st| (RMk1 val!6601)))))
 (let (($x2005 (not (= |v3:8_st| (RMk1 val!6600)))))
 (let (($x1367 (not (= |v8:3_st| (RMk1 val!6599)))))
 (let (($x3058 (not (= |v9:2_st| (RMk1 val!6598)))))
 (let (($x1294 (not (= |v10:1_st| (RMk1 val!6597)))))
 (let (($x2915 (not (= |v11:0_st| (RMk1 val!6596)))))
 (and $x2915 $x1294 $x3058 $x1367 $x2005 $x1346 $x1272 $x1161 (and $x2568 (and (and $x891 $x948) $x3451)))))))))))))))))))))))))))))))))))))))))))))))))))))))))))))))))))))))))))))))))))))))))))))))))))))))))))))))))))))))))))))))))))))))))))))
 )
 )
 )
 )
 )
 )
 )
 )
 )
 )
 )
 )
(check-sat)
